objective value:                                   -3
t_n_17                                              1 	(obj:-1)
t_n_946                                             1 	(obj:-1)
t_n_1872                                            1 	(obj:-1)
